500 540
2 3
1 4
1 5
2 6
3 7 8
4 9
5 10
5 11
6 12
7 13
8 14
9 15
10
11 16
12 17
14 18
15 19
16 20 21
17 22
18 23
18 24 25
19 26
20 27 28
21 29 30
21
22 31
23 32 33
23 34
24 35 36
24 37 38
26 39
27
27 40 41
28 42
29 43 44 45
29
30 46 47
30 48
31 49
33 50 51 52
33
34 53
35 54
35 55 56
35 57
37 58 59
37
38 60
39 61
40 62 63
40
40 64
42 65
43 66
44
44 67 68
45 69
46
46 60
48 59
49 70
50 71 72 73
50 74
52 75 76
53 75 77
54 78
56 79 80
56
57 81
61 82
62 83 84 85
62 86 87 88
62 89 90
63 91
64 65
64 92
65 93
66 94 95
67
67 96 97
69 98
70 99
71 100 101 102
71 103 104
71 105
72 105 106
72 107
72 108 109
73
73
74 110
76 111 112
77 113
78 114
78
80 115 116
80
81 117
82 118
83 119 120
83 121 122
83 123 124
84 125
84
85 86 126 127
86 128
87
88 129 130
88
91 130
92 131
92 132
93 133 134
94 135 136
96 137
96
98
99 138
100 139 140
100 141 142
101 143
101 144
102 141 145 146
102 147
103 143
105 145
105 148
106 149
108 150 151 152
108 110 153
111
112 154
113 155 156
113 157
114 158 159
114 160
115 161
118 162
119 163 164
119 165
120 123 166
120
121 125 167
122 168
123 126
123 169 170
124
127 171 172
128
129 173
129 174
129 175
130 176
132
133 177
133 178
134
135 179
135
136 180
137 181
138 182
139 183 184
139 185 186
140 187
141 188
143
144 189
146 190 191
146
148 192 193
148 194
150 195 196 197
151 198
152 199
153 200
155 201
156 202
158 203
160 197 204 205 206
161 207
162 208
163
163 209
164 210 211
164
165 189 212
166 213 214
168 187
169 215
169 216
171 217 218
171 219
172 220
173 221
173 222
173 180 223
174 224 225
175 202
176 226
177 227
178 199
179 228 229
180 230
180 231 232
180 233 234
181 235 236 237
182 238
184 239 240
185
185 241 242
187 243 244
188 215 245 246
188 247
190 213
191 248 249
192 250 251
192 250
193 252
194 248 253
195 254
196 255
197 256
198 251
198 252
200
201 229
203 257
203 227
204 257
205
205 235
206 255 258
206 259 260
207 232
207 261
207 262
208 263 264
209 265 266
209 267
211
211 247 268
212
212
213 269
213 270
214 242 271
216 220
216 272
217 218
217 224
219 225 273 274
220 275 276
221 277
222 233
223
228 230
233 278
234 279
234 280 281
236 279 282
237
238 283
238 284 285
239 286
239 287 288
240
242
245 289 290
246 271 291 292
247 270 293
249
252 294 295
252 275
253 274 296
253 297
254 298
258 299 300
259 261
260 301
260 302 303
261 304 305
263 306
264
264 307
265 292 308
266 309
266 310 311
269 312
269 313
270 314 315 316
270 286
271
273 317 318
273
275 319
276 320
277 321
278 322
278 323
280 324
281 325
281 326
282 327
282 328
283 329
285 330 331
286 332
287 333
288 334 335
288 336
289 337
290 316
291 338
291 339
291 313
294 340
294 341
296 342
297 342 343
298 344
299 324
300 345
301 322
302 346
303
304 347
305 348
306 349
307 350
307 351
308 352
309
310 353 354
310 355
311 356
312 357
314 358 359
315 360
317 361 362
318 363
319 320 364
320 365
321 366
323 367
325 347 368 369
327 346 370
328 371
329 372
330 373
331 374
332 375
334 376
334 377
335 378 379
336 380
337 381 382 383
338 384 385
338
339 386
340 367 387 388
340 388 389
341 390
342 391
343 392
344 393
345 361 394
346 395 396 397
346 398 399
347
348 400 401
349 402
350 403 404
351 405
352 385
353 406
354 407
355 408
355 409
356
357 391
357 410
357 411
358 412 413
358 375
360 414
361 396 415
361 362 416
362 417
363 418
364 381
365 419 420
366 421
367
368 422
368 387 423
368 424 425
369 426
369 427
371 428 429
371 429 430
372 431
373 432
373 433 434
374 435
376 436
377 437
378 438
379 439
382 440
383 441
384 442
384 436
386 443
387 444
388 445 446 447
389 448
390
392
392
393
395 426 449
396 450 451
397 452 453
397 454
398 422 455
399 456 457
400 458 459
400 401
401 460
402 461
403 433
404 432
404 462
405 463 464
406 413 465
407 466 467
408 468
409 469
410 470
411 471 472
412 473
414 474 475
415
416 476
416 477
416 478
417
422 479 480
423
423 453
424 481 482
424 451 483
425 479 484
426 459 485
427 486
427
428 487 488
428 455
430 489
431 490
434 491 492
435 493 494
435 495
436 496 497 498
437 499
437 500
438
439
440
441
441
442
443
443
445
446
447
449 454
449
452
452
453
454
455
456
458
458
460
461
462
462
463
463
464
465
465
465 500
466
467 498
